(declare-const X String)
; SpywareStrike.*Subject\x3A\s+Pcast\x2Edat\x2EToolbar
(assert (str.in_re X (re.++ (str.to_re "SpywareStrike") (re.* re.allchar) (str.to_re "Subject:") (re.+ (re.union (str.to_re " ") (str.to_re "\u{9}") (str.to_re "\u{a}") (str.to_re "\u{c}") (str.to_re "\u{d}"))) (str.to_re "Pcast.dat.Toolbar\u{a}"))))
(check-sat)
